certificates/rado_a9_c248_N30.cnf
c Rad2 upper bound instance: x1 + 9*x2 - x3 = 248, interval [1,30]
p cnf 30 196
1 5 28 0
-1 -5 -28 0
1 14 29 0
-1 -14 -29 0
1 23 30 0
-1 -23 -30 0
2 6 28 0
-2 -6 -28 0
2 15 29 0
-2 -15 -29 0
2 24 30 0
-2 -24 -30 0
3 7 28 0
-3 -7 -28 0
3 16 29 0
-3 -16 -29 0
3 25 30 0
-3 -25 -30 0
4 8 28 0
-4 -8 -28 0
4 17 29 0
-4 -17 -29 0
4 26 30 0
-4 -26 -30 0
5 9 28 0
-5 -9 -28 0
5 18 29 0
-5 -18 -29 0
5 27 30 0
-5 -27 -30 0
1 6 27 0
-1 -6 -27 0
6 10 28 0
-6 -10 -28 0
6 19 29 0
-6 -19 -29 0
6 28 30 0
-6 -28 -30 0
2 7 27 0
-2 -7 -27 0
7 11 28 0
-7 -11 -28 0
7 20 29 0
-7 -20 -29 0
7 29 30 0
-7 -29 -30 0
3 8 27 0
-3 -8 -27 0
8 12 28 0
-8 -12 -28 0
8 21 29 0
-8 -21 -29 0
8 30 0
-8 -30 0
4 9 27 0
-4 -9 -27 0
9 13 28 0
-9 -13 -28 0
9 22 29 0
-9 -22 -29 0
5 10 27 0
-5 -10 -27 0
10 14 28 0
-10 -14 -28 0
10 23 29 0
-10 -23 -29 0
6 11 27 0
-6 -11 -27 0
11 15 28 0
-11 -15 -28 0
11 24 29 0
-11 -24 -29 0
7 12 27 0
-7 -12 -27 0
12 16 28 0
-12 -16 -28 0
12 25 29 0
-12 -25 -29 0
8 13 27 0
-8 -13 -27 0
13 17 28 0
-13 -17 -28 0
13 26 29 0
-13 -26 -29 0
9 14 27 0
-9 -14 -27 0
14 18 28 0
-14 -18 -28 0
14 27 29 0
-14 -27 -29 0
1 15 26 0
-1 -15 -26 0
10 15 27 0
-10 -15 -27 0
15 19 28 0
-15 -19 -28 0
15 28 29 0
-15 -28 -29 0
2 16 26 0
-2 -16 -26 0
11 16 27 0
-11 -16 -27 0
16 20 28 0
-16 -20 -28 0
16 29 0
-16 -29 0
3 17 26 0
-3 -17 -26 0
12 17 27 0
-12 -17 -27 0
17 21 28 0
-17 -21 -28 0
17 29 30 0
-17 -29 -30 0
4 18 26 0
-4 -18 -26 0
13 18 27 0
-13 -18 -27 0
18 22 28 0
-18 -22 -28 0
5 19 26 0
-5 -19 -26 0
14 19 27 0
-14 -19 -27 0
19 23 28 0
-19 -23 -28 0
6 20 26 0
-6 -20 -26 0
15 20 27 0
-15 -20 -27 0
20 24 28 0
-20 -24 -28 0
7 21 26 0
-7 -21 -26 0
16 21 27 0
-16 -21 -27 0
21 25 28 0
-21 -25 -28 0
8 22 26 0
-8 -22 -26 0
17 22 27 0
-17 -22 -27 0
22 26 28 0
-22 -26 -28 0
9 23 26 0
-9 -23 -26 0
18 23 27 0
-18 -23 -27 0
23 27 28 0
-23 -27 -28 0
1 24 25 0
-1 -24 -25 0
10 24 26 0
-10 -24 -26 0
19 24 27 0
-19 -24 -27 0
24 28 0
-24 -28 0
2 25 0
-2 -25 0
11 25 26 0
-11 -25 -26 0
20 25 27 0
-20 -25 -27 0
25 28 29 0
-25 -28 -29 0
3 25 26 0
-3 -25 -26 0
12 26 0
-12 -26 0
21 26 27 0
-21 -26 -27 0
26 28 30 0
-26 -28 -30 0
4 25 27 0
-4 -25 -27 0
13 26 27 0
-13 -26 -27 0
22 27 0
-22 -27 0
5 25 28 0
-5 -25 -28 0
14 26 28 0
-14 -26 -28 0
6 25 29 0
-6 -25 -29 0
15 26 29 0
-15 -26 -29 0
24 27 29 0
-24 -27 -29 0
7 25 30 0
-7 -25 -30 0
16 26 30 0
-16 -26 -30 0
25 27 30 0
-25 -27 -30 0
