certificates/rado_a9_c248_N30.drat
-28 -29 -30 0
-29 -30 0
d -7 -29 -30 0
-30 0
8 0
28 29 0
29 0
-16 0
-21 0
26 0
27 0
-13 0
-12 0
-15 0
-22 0
-14 0
-24 0
-3 0
28 0
2 0
25 0
0
